(set-option :produce-models true)
(set-logic QF_UF)
(declare-fun p5() Bool)
(declare-fun p7() Bool)
(declare-fun p63() Bool)
(declare-fun p3() Bool)
(declare-fun p33() Bool)
(declare-fun p48() Bool)
(declare-fun p15() Bool)
(declare-fun p0() Bool)
(declare-fun p58() Bool)
(declare-fun p9() Bool)
(declare-fun p42() Bool)
(declare-fun p30() Bool)
(declare-fun p18() Bool)
(declare-fun p19() Bool)
(declare-fun p69() Bool)
(declare-fun p56() Bool)
(declare-fun p61() Bool)
(declare-fun p55() Bool)
(declare-fun p57() Bool)
(declare-fun p32() Bool)
(declare-fun p6() Bool)
(declare-fun p4() Bool)
(declare-fun p65() Bool)
(declare-fun p17() Bool)
(declare-fun p1() Bool)
(declare-fun p23() Bool)
(declare-fun p34() Bool)
(declare-fun p62() Bool)
(declare-fun p22() Bool)
(declare-fun p38() Bool)
(declare-fun p2() Bool)
(declare-fun p11() Bool)
(declare-fun p29() Bool)
(declare-fun p25() Bool)
(declare-fun p47() Bool)
(declare-fun p50() Bool)
(declare-fun p16() Bool)
(declare-fun p54() Bool)
(declare-fun p66() Bool)
(declare-fun p27() Bool)
(declare-fun p46() Bool)
(declare-fun p49() Bool)
(declare-fun p67() Bool)
(declare-fun p40() Bool)
(declare-fun p45() Bool)
(declare-fun p14() Bool)
(declare-fun p41() Bool)
(declare-fun p26() Bool)
(declare-fun p20() Bool)
(declare-fun p51() Bool)
(declare-fun p64() Bool)
(declare-fun p21() Bool)
(declare-fun p39() Bool)
(declare-fun p13() Bool)
(declare-fun p36() Bool)
(declare-fun p60() Bool)
(declare-fun p37() Bool)
(declare-fun p44() Bool)
(declare-fun p12() Bool)
(declare-fun p10() Bool)
(declare-fun p31() Bool)
(declare-fun p59() Bool)
(declare-fun p28() Bool)
(declare-fun p52() Bool)
(declare-fun p68() Bool)
(declare-fun p35() Bool)
(declare-fun p24() Bool)
(declare-fun p53() Bool)
(declare-fun p8() Bool)
(declare-fun p43() Bool)
(assert
(and (or p5 (not p7) p63) (or (not p3) p33 (not p48)) (or p15 p0 p58) (or p9 (not p42) (not p30)) (or p18 (not p19) p69) (or (not p56) (not p61) (not p55)) (or p61 (not p57) p32) (or p6 p4 (not p65)) (or (not p17) p1 (not p23)) (or (not p56) p1 p34) (or (not p62) (not p57) (not p22)) (or p38 (not p2) p9) (or p11 (not p0) p29) (or p25 (not p48) p47) (or p50 (not p16) p62) (or p54 (not p66) p27) (or p46 (not p42) p9) (or (not p49) (not p32) p4) (or (not p67) p49 p29) (or p16 (not p33) (not p4)) (or (not p56) p40 p45) (or (not p14) p25 (not p41)) (or p55 p26 p7) (or p20 p51 (not p64)) (or p1 (not p7) p21) (or p47 (not p61) p27) (or p32 p29 (not p39)) (or (not p2) p63 p13) (or (not p65) p21 p42) (or (not p46) p36 (not p3)) (or p9 p23 p60) (or (not p32) (not p66) p62) (or p37 p44 (not p66)) (or p34 p65 (not p12)) (or (not p10) (not p62) p23) (or p54 p31 (not p50)) (or (not p18) (not p12) (not p14)) (or (not p40) (not p7) p17) (or p11 (not p33) p30) (or (not p63) (not p16) p62) (or p50 p62 p59) (or (not p46) (not p31) p56) (or (not p66) p69 (not p19)) (or p30 p7 (not p48)) (or p31 p28 p17) (or (not p5) (not p57) (not p21)) (or (not p54) p62 (not p34)) (or p64 (not p27) p1) (or p62 p30 p21) (or (not p67) p59 p57) (or (not p19) p52 p32) (or (not p15) (not p31) p49) (or p47 p29 p17) (or p68 p0 (not p56)) (or (not p27) p16 p26) (or (not p68) (not p58) p21) (or (not p68) p52 (not p37)) (or (not p64) (not p66) (not p35)) (or p27 (not p22) p69) (or (not p33) (not p51) p10) (or (not p50) p55 (not p42)) (or (not p47) p48 p66) (or p12 (not p6) (not p67)) (or (not p60) (not p24) p37) (or p55 p30 (not p49)) (or p32 (not p10) (not p15)) (or p23 (not p28) (not p68)) (or (not p30) (not p49) (not p69)) (or p30 (not p65) (not p62)) (or (not p9) (not p16) p50) (or p36 p44 p40) (or p15 (not p66) p53) (or (not p61) (not p35) (not p21)) (or p40 (not p11) p7) (or p0 p44 (not p33)) (or (not p27) (not p9) p34) (or (not p45) (not p4) (not p65)) (or p8 (not p1) p10) (or p50 p52 p15) (or p40 p61 p62) (or (not p66) (not p17) (not p58)) (or p3 p46 p69) (or (not p26) (not p6) p1) (or (not p17) (not p34) (not p30)) (or p43 p6 (not p27)) (or p69 (not p27) (not p47)) (or (not p28) (not p39) p21) (or (not p38) (not p65) (not p21)) (or p50 (not p61) (not p43)) (or (not p59) p34 p64) (or (not p33) (not p66) p62) (or (not p52) p30 (not p7)) (or (not p56) p56 (not p39)) (or p17 (not p44) p23) (or (not p14) (not p4) p58) (or (not p48) p66 p47) (or (not p35) p68 p18) (or (not p6) (not p60) (not p10)) (or (not p45) (not p3) p37) (or (not p53) p53 (not p0)) (or (not p26) p53 p29) (or (not p53) p37 (not p65)) (or (not p25) p62 p28) (or (not p37) p54 (not p24)) (or (not p32) p6 (not p39)) (or p55 p44 (not p29)) (or p62 (not p14) (not p26)) (or p9 (not p48) p0) (or p0 p4 (not p69)) (or p37 p23 p49) (or (not p17) p64 (not p41)) (or p69 (not p15) (not p58)) (or (not p13) (not p0) p18) (or (not p67) (not p14) p57) (or (not p56) p16 p66) (or (not p24) p1 p64) (or (not p55) p17 (not p41)) (or (not p57) p60 (not p21)) (or (not p3) (not p33) p18) (or (not p65) p50 (not p54)) (or (not p46) (not p10) (not p67)) (or (not p62) (not p23) (not p20)) (or p14 p19 p1) (or (not p50) p51 p8) (or (not p19) (not p55) (not p11)) (or (not p33) (not p35) (not p35)) (or p46 (not p69) (not p19)) (or (not p6) p0 p23) (or (not p69) (not p23) (not p3)) (or (not p1) (not p39) (not p37)) (or p68 p35 p52) (or (not p11) p52 (not p65)) (or p15 (not p21) p3) (or (not p44) (not p59) (not p44)) (or p59 (not p48) (not p60)) (or (not p12) p10 (not p52)) (or p53 (not p40) (not p24)) (or (not p50) p65 (not p6)) (or (not p63) (not p34) p23) (or (not p21) (not p59) (not p7)) (or (not p40) (not p27) (not p15)) (or p41 p50 p11) (or (not p41) p38 (not p47)) (or (not p58) (not p12) p39) (or (not p2) p21 p59) (or (not p51) p10 p42) (or (not p56) p64 (not p6)) (or p64 p28 (not p50)) (or p51 p25 (not p50)) (or p26 (not p37) p14) (or (not p49) (not p18) (not p23)) (or (not p69) (not p34) (not p18)) (or p13 (not p5) p21) (or p32 p10 (not p9)) (or p11 (not p60) p50) (or p23 (not p51) (not p42)) (or p51 (not p48) p40) (or (not p69) (not p33) (not p37)) (or (not p49) p13 (not p46)) (or p33 p22 (not p4)) (or p68 (not p58) p20) (or p17 (not p27) (not p54)) (or (not p3) p38 p60) (or p5 p47 p25) (or (not p23) (not p11) (not p9)) (or p20 p37 p29) (or p23 (not p57) (not p46)) (or p39 (not p14) p23) (or (not p53) (not p23) (not p25)) (or (not p22) (not p67) (not p25)) (or (not p47) (not p43) p45) (or (not p69) p64 p43) (or (not p50) (not p37) (not p15)) (or (not p64) (not p2) p59) (or p10 (not p8) p32) (or p24 p40 p8) (or p0 (not p25) (not p32)) (or (not p49) (not p66) (not p61)) (or p32 (not p37) (not p0)) (or p50 (not p23) p66) (or p2 (not p41) (not p20)) (or (not p30) p67 p63) (or p19 p19 (not p64)) (or p31 (not p46) p53) (or (not p29) (not p66) p41) (or (not p45) p12 (not p67)) (or p21 p8 p63) (or (not p7) (not p10) p26) (or p5 p33 p67) (or (not p35) p58 p0) (or p24 (not p25) p3) (or (not p64) p8 (not p14)) (or (not p51) p30 p9) (or (not p65) p52 p30) (or p64 p65 (not p45)) (or (not p10) (not p16) (not p19)) (or (not p46) p52 (not p10)) (or p45 (not p69) p68) (or (not p30) (not p7) (not p2)) (or (not p16) p5 p46) (or (not p41) (not p0) p60) (or p24 (not p32) (not p0)) (or p43 p67 (not p29)) (or p64 p12 (not p19)) (or p33 p21 p25) (or p20 p15 p15) (or p59 p50 p2) (or p63 p39 p68) (or p41 (not p66) (not p17)) (or (not p56) (not p35) p56) (or (not p35) (not p54) (not p21)) (or (not p7) (not p31) p45) (or p4 p17 (not p4)) (or p13 p36 (not p28)) (or (not p14) (not p56) (not p1)) (or (not p36) (not p48) (not p9)) (or p23 (not p2) p40) (or (not p55) p21 p69) (or p20 p11 p11) (or (not p3) p37 p11) (or (not p40) p29 (not p1)) (or (not p25) p66 (not p69)) (or p60 (not p28) (not p31)) (or p14 p46 (not p21)) (or p6 (not p24) p44) (or p28 p2 (not p39)) (or p36 p7 (not p57)) (or p19 (not p32) (not p61)) (or (not p22) p49 (not p21)) (or p28 (not p55) (not p27)) (or (not p52) (not p22) p26) (or p4 (not p55) p37) (or p52 p45 (not p15)) (or (not p56) (not p69) (not p39)) (or p12 p11 p33) (or (not p8) p26 (not p64)) (or (not p49) p40 p44) (or (not p53) (not p5) (not p20)) (or p54 p3 (not p36)) (or p36 (not p44) p40) (or p67 (not p63) (not p68)) (or p52 (not p12) (not p44)) (or p3 p33 (not p26)) (or p69 (not p33) (not p34)) (or p53 p24 p37) (or (not p66) p2 p61) (or (not p67) (not p27) p64) (or (not p32) p45 p55) (or p22 p34 (not p9)) (or p32 (not p6) (not p23)) (or p68 p2 p19) (or p9 p37 (not p55)) (or (not p62) (not p4) p13) (or (not p31) p21 p56) (or (not p42) p28 p46) (or (not p62) (not p63) p7) (or p8 (not p59) p21) (or (not p15) (not p54) p60) (or p33 p51 p13) (or (not p38) p18 (not p36)) (or p35 p52 p54) (or p33 (not p53) (not p1)) (or p40 (not p31) p24) (or (not p22) (not p8) p60) (or (not p56) (not p3) p48) (or p1 (not p69) p32) (or (not p44) p19 (not p41)) (or (not p31) (not p36) p8) (or p44 p48 (not p11)) (or (not p15) p63 p55) (or p48 p33 p20) (or (not p16) p21 (not p7)) (or p41 p18 p6) (or (not p54) (not p17) (not p51)) (or (not p10) p0 (not p58)) (or (not p16) p43 p61) (or (not p10) (not p64) (not p61)) (or (not p5) (not p56) p29) (or (not p41) (not p59) (not p14)) (or p18 p27 (not p35)) (or (not p12) (not p39) (not p28)) (or (not p36) (not p22) p53) (or p54 p18 (not p15)) (or p31 p29 p67) (or p3 (not p5) p27) (or (not p4) p16 p62) (or p21 (not p53) p27) (or (not p52) p33 p0) (or (not p8) p24 p24) (or p29 (not p22) p48) (or p37 p25 p37) (or (not p12) (not p7) (not p55)) (or p3 p62 p15) (or p65 p4 (not p24)) (or (not p59) p14 (not p55)) (or (not p60) (not p38) p37) (or (not p43) p8 p42))
)
(check-sat)
(get-model)
